c Result of efficient AIG-to-CNF conversion using package CNF
p cnf 45 170
-2 3 4 22 0
-2 3 18 22 0
-2 4 18 22 0
2 -3 -18 0
2 -3 -4 0
2 -22 0
2 -4 -18 0
3 45 -46 0
3 -45 46 0
-3 -45 -46 0
-3 45 46 0
-4 5 14 -17 0
-4 5 14 16 0
4 -5 0
4 -14 0
4 -16 17 0
5 -42 -6 0
5 -42 11 0
5 -42 -10 0
-5 42 0
-5 6 10 -11 0
6 -39 -41 -8 0
6 -39 -7 -8 0
6 -39 -41 -7 0
-6 41 8 0
-6 7 8 0
-6 39 0
-6 41 7 0
7 -43 -44 0
-7 43 0
-7 44 0
8 -40 -9 0
-8 40 0
-8 9 0
-9 43 44 0
9 -43 0
9 -44 0
10 -40 -41 -7 0
-10 40 0
-10 41 0
-10 7 0
-11 41 9 13 0
-11 9 12 13 0
11 -9 0
11 -13 0
11 -41 -12 0
-12 39 40 0
12 -39 0
12 -40 0
13 -39 -40 0
-13 39 0
-13 40 0
14 -39 -10 0
14 -39 9 15 0
-14 39 0
-14 10 -15 0
-14 -9 10 0
-15 41 42 0
15 -41 0
15 -42 0
16 7 -9 0
-16 -7 0
-16 9 0
-17 41 12 0
17 -41 0
17 -12 0
18 42 -3 -19 0
18 42 -3 -21 0
-18 -42 0
-18 3 0
-18 19 21 0
19 9 -20 0
19 12 -20 0
-19 20 0
-19 -9 -12 0
-20 -41 16 0
-20 40 43 16 0
20 -16 0
20 -40 41 0
20 41 -43 0
21 41 13 -16 0
21 -41 9 13 0
-21 -13 0
-21 -41 -9 0
-21 41 16 0
-22 16 23 29 0
-22 23 25 29 0
-22 16 25 29 0
22 -16 -23 0
22 -23 -25 0
22 -29 0
22 -16 -25 0
23 45 46 -24 0
-23 -45 0
-23 24 0
-23 -46 0
-24 -42 -12 -13 0
-24 41 42 12 0
-24 -41 42 -13 0
-24 -41 -42 -12 0
24 -41 42 13 0
24 41 -42 13 0
24 -42 12 0
24 41 42 -12 0
25 -26 -16 -27 -28 0
-25 27 0
-25 28 0
-25 26 0
-25 16 0
26 -45 -46 0
-26 45 0
-26 46 0
27 -41 -12 0
27 -42 -12 0
-27 12 0
-27 41 42 0
-28 41 13 0
-28 42 13 0
28 -13 0
28 -41 -42 0
-29 30 34 0
-29 -31 32 34 0
29 -34 0
29 -30 31 0
29 -30 -32 0
-30 45 7 0
-30 46 7 0
30 -7 0
30 -45 -46 0
-31 41 42 7 12 0
31 -12 0
31 -7 0
31 -41 0
31 -42 0
32 -41 46 -33 0
32 -41 44 -33 0
-32 33 0
-32 41 0
-32 -44 -46 0
33 -42 -13 0
-33 42 0
-33 13 0
-34 -36 -38 0
-34 -35 36 0
-34 36 37 0
-34 -36 -37 0
34 35 36 -37 0
34 -36 37 38 0
35 -41 -42 0
-35 41 0
-35 42 0
-36 41 -42 12 0
-36 41 42 13 0
-36 -41 -42 -13 0
-36 42 12 13 0
36 41 -42 -12 0
36 -41 -42 13 0
36 42 -13 0
36 -41 -12 13 0
37 43 44 -45 -46 0
37 -43 -44 45 46 0
-37 45 -46 0
-37 -43 -45 0
-37 44 46 0
-37 43 -44 0
-38 3 16 0
38 -3 0
38 -16 0
-47 0
2 0

